 vasp.5.3.3 18Dez12 (build Jan  9 2014 12:00:49) complex

 executed on             LinuxIFC date 2014.01.29  10:05:23

 INCAR:
 POTCAR:    PAW Si

 POTCAR:    PAW Si
   VRHFIN =Si: s2p2

   TITEL  = PAW Si
   POMASS =   28.085; ZVAL   =    4.000    mass and valenz
   ENMAX  =  245.435; ENMIN  =  184.076 eV
   QCUT   =   -4.247; QGAM   =    8.494    optimization parameters

   Description
     l     E      TYP  RCUT    TYP  RCUT
     0   .000     23  1.900
     0   .000     23  1.900
     1   .000     23  1.900
     1   .000     23  1.900
     2   .000      7  1.900

  PAW Si                                :

 POSCAR: OUTCAR.0014.-1.out 1.0e-02
  positions in cartesian coordinates
 exchange correlation table for  LEXCH =        7
   RHO(1)=    0.500       N(1)  =     2000
   RHO(2)=  100.500       N(2)  =     4000

 VTST: version 3.0c, (01/09/14)

 CHAIN: initializing optimizer

 OPT: Using VASP Dynamics algorithm
 CHAIN: Read ICHAIN            0

 POSCAR: OUTCAR.0014.-1.out 1.0e-02
  positions in cartesian coordinates

 ion  position               nearest neighbor table
   1  0.999  1.000  1.000-   6 2.36   4 2.37   8 2.37   2 2.37
   2  0.250  0.250  0.250-   5 2.36   3 2.37   7 2.37   1 2.37
   3  0.500  0.500  0.000-   8 2.37   2 2.37   4 2.37   6 2.37
   4  0.750  0.750  0.251-   7 2.36   5 2.37   1 2.37   3 2.37
   5  0.500  0.001  0.499-   2 2.36   4 2.37   6 2.37   8 2.37
   6  0.751  0.249  0.750-   1 2.36   7 2.37   5 2.37   3 2.37
   7  0.999  0.500  0.500-   4 2.36   6 2.37   2 2.37   8 2.37
   8  0.250  0.750  0.750-   3 2.37   1 2.37   7 2.37   5 2.37

  LATTYP: Found a simple cubic cell.
 ALAT       =     5.4700000000

  Lattice vectors:

 A1 = (   5.4700000000,   0.0000000000,   0.0000000000)
 A2 = (   0.0000000000,   5.4700000000,   0.0000000000)
 A3 = (   0.0000000000,   0.0000000000,   5.4700000000)

Analysis of symmetry for initial positions (statically):
 Subroutine PRICEL returns:
 Original cell was already a primitive cell.

 Routine SETGRP: Setting up the symmetry group for a
 simple cubic supercell.

 Subroutine GETGRP returns: Found  1 space group operations
 (whereof  1 operations were pure point group operations)
 out of a pool of 48 trial point group operations.

The static configuration has the point symmetry C_1 .

Analysis of symmetry for dynamics (positions and initial velocities):
 Subroutine PRICEL returns:
 Original cell was already a primitive cell.

[...]

The dynamic configuration has the point symmetry C_1 .

 irot  :   1
 isymop:   1   0   0
           0   1   0
           0   0   1

 gtrans:     0.0000000     0.0000000     0.0000000

 ptrans:     0.0000000     0.0000000     0.0000000
 rotmap:
 (   1->   1)  (   2->   2)  (   3->   3)  (   4->   4)  (   5->   5)
 (   6->   6)  (   7->   7)  (   8->   8)

 KPOINTS: Automatic mesh

Automatic generation of k-mesh.
Space group operators:
 irot       det(A)        alpha          n_x          n_y          n_z        tau_x        tau_y        tau_z
    1     1.000000     0.000001     1.000000     0.000000     0.000000     0.000000     0.000000     0.000000

 Subroutine IBZKPT returns following result:

 Found      1 irreducible k-points:

 Following reciprocal coordinates:
            Coordinates               Weight
  0.000000  0.000000  0.000000      1.000000

 Following cartesian coordinates:
            Coordinates               Weight
  0.000000  0.000000  0.000000      1.000000

 Subroutine IBZKPT_HF returns following result:

 Found      1 k-points in 1st BZ
 the following      1 k-points will be used (e.g. in the exchange kernel)
 Following reciprocal coordinates:   # in IRBZ
  0.000000  0.000000  0.000000       1 t-inv F

 I would recommend the setting:
   dimension x,y,z NGX =    19 NGY =   19 NGZ =   19
 SYSTEM =  NAPTHA04
 POSCAR =  OUTCAR.0014.-1.out 1.0e-02

 Startparameter for this run:
   NWRITE =      3    write-flag & timer
   PREC   = normal    normal or accurate (medium, high low for compatibility)
   ISTART =      0    job   : 0-new  1-cont  2-samecut
   ICHARG =      2    charge: 1-file 2-atom 10-const
   ISPIN  =      1    spin polarized calculation?
   LNONCOLLINEAR =      F non collinear calculations
   LSORBIT =      F    spin-orbit coupling
   INIWAV =      1    electr: 0-lowe 1-rand  2-diag
   LASPH  =      F    aspherical Exc in radial PAW
   METAGGA=      F    non-selfconsistent MetaGGA calc.

 Electronic Relaxation 1
   ENCUT  =  200.0 eV  14.70 Ry    3.83 a.u.   6.31  6.31  6.31*2*pi/ulx,y,z
   ENINI  =  200.0     initial cutoff
   ENAUG  =  322.1 eV  augmentation charge cutoff
   NELM   =     60;   NELMIN=  2; NELMDL= -5     # of ELM steps
   EDIFF  = 0.1E-07   stopping-criterion for ELM
   LREAL  =      F    real-space projection
   NLSPLINE    = F    spline interpolate recip. space projectors
   LCOMPAT=      F    compatible to vasp.4.4
   GGA_COMPAT  = T    GGA compatible to vasp.4.4-vasp.4.6
   LMAXPAW     = -100 max onsite density
   LMAXMIX     =    2 max onsite mixed and CHGCAR
   VOSKOWN=      0    Vosko Wilk Nusair interpolation
   ROPT   =    0.00000
 Ionic relaxation
   EDIFFG = 0.1E-06   stopping-criterion for IOM
   NSW    =      0    number of steps for IOM
   NBLOCK =      1;   KBLOCK =      1    inner block; outer block
   IBRION =     -1    ionic relax: 0-MD 1-quasi-New 2-CG
   NFREE  =      0    steps in history (QN), initial steepest desc. (CG)
   ISIF   =      2    stress and relaxation
   IWAVPR =     10    prediction:  0-non 1-charg 2-wave 3-comb
   ISYM   =      2    0-nonsym 1-usesym 2-fastsym
   LCORR  =      T    Harris-Foulkes like correction to forces

   POTIM  = 0.5000    time-step for ionic-motion
   TEIN   =    0.0    initial temperature
   TEBEG  =    0.0;   TEEND  =   0.0 temperature during run
   SMASS  =  -3.00    Nose mass-parameter (am)
   estimated Nose-frequenzy (Omega)   =  0.10E-29 period in steps =****** mass=  -0.684E-27a.u.
   SCALEE = 1.0000    scale energy and forces
   NPACO  =    256;   APACO  = 16.0  distance and # of slots for P.C.
   PSTRESS=    0.0 pullay stress

  Mass of Ions in am
   POMASS =  28.09
  Ionic Valenz
   ZVAL   =   4.00
  Atomic Wigner-Seitz radii
  virtual crystal weights
   VCA    =   1.00
   NELECT =      32.0000    total number of electrons
   NUPDOWN=      -1.0000    fix difference up-down

 DOS related values:
   EMIN   =  10.00;   EMAX   =-10.00  energy-range for DOS
   EFERMI =   0.00
   ISMEAR =     0;   SIGMA  =   0.02  broadening in eV -4-tet -1-fermi 0-gaus

 Electronic relaxation 2 (details)
   IALGO  =     68    algorithm
   LDIAG  =      T    sub-space diagonalisation (order eigenvalues)
   LSUBROT=      T    optimize rotation matrix (better conditioning)
   TURBO    =      0    0=normal 1=particle mesh
   IRESTART =      0    0=no restart 2=restart with 2 vectors
   NREBOOT  =      0    no. of reboots
   NMIN     =      0    reboot dimension
   EREF     =   0.00    reference energy to select bands
   IMIX   =      4    mixing-type and parameters
     AMIX     =   0.40;   BMIX     =  1.00
     AMIX_MAG =   1.60;   BMIX_MAG =  1.00
     AMIN     =   0.10
     WC   =   100.;   INIMIX=   1;  MIXPRE=   1;  MAXMIX= -45

 Intra band minimization:
   WEIMIN = 0.0000     energy-eigenvalue tresh-hold
   EBREAK =  0.52E-10  absolut break condition
   DEPER  =   0.30     relativ break condition

   TIME   =   0.40     timestep for ELM

  volume/ion in A,a.u.               =      20.46       138.06
  Fermi-wavevector in a.u.,A,eV,Ry     =   0.950176  1.795573 12.283814  0.902835
  Thomas-Fermi vector in A             =   2.078528

 Write flags
   LWAVE  =      F    write WAVECAR
   LCHARG =      F    write CHGCAR
   LVTOT  =      F    write LOCPOT, total local potential
   LVHAR  =      F    write LOCPOT, Hartree potential only
   LELF   =      F    write electronic localiz. function (ELF)
   LORBIT =      0    0 simple, 1 ext, 2 COOP (PROOUT)

 Dipole corrections
   LMONO  =      F    monopole corrections only (constant potential shift)
   LDIPOL =      F    correct potential (dipole corrections)
   IDIPOL =      0    1-x, 2-y, 3-z, 4-all directions
   EPSILON=  1.0000000 bulk dielectric constant

 Exchange correlation treatment:
   GGA     =    --    GGA type
   VOSKOWN=      0    Vosko Wilk Nusair interpolation
   LHFCALC =     F    Hartree Fock is set to
   LHFONE  =     F    Hartree Fock one center treatment
   AEXX    =    0.0000 exact exchange contribution

 Linear response parameters
   LEPSILON=     T    determine dielectric tensor
   LRPA    =     F    only Hartree local field effects (RPA)
   LNABLA  =     F    use nabla operator in PAW spheres
   LVEL    =     F    velocity operator in full k-point grid
   LINTERFAST=   F  fast interpolation
   KINTER  =     0    interpolate to denser k-point grid
   CSHIFT  =0.1000    complex shift for real part using Kramers Kronig
   OMEGAMAX=  -1.0    maximum frequency
   DEG_THRESHOLD= 0.2000000E-02 threshold for treating states as degnerate
   RTIME   =    0.100 relaxation time in fs

 Orbital magnetization related:
   ORBITALMAG=     F  switch on orbital magnetization
   LCHIMAG   =     F  perturbation theory with respect to B field
   DQ        =  0.001000  dq finite difference perturbation B field

 Static calculation
 charge density and potential will be updated during run
 non-spin polarized calculation
 RMM-DIIS sequential band-by-band and
  variant of blocked Davidson during initial phase
 perform sub-space diagonalisation
    before iterative eigenvector-optimisation
 modified Broyden-mixing scheme, WC =      100.0
 initial mixing is a Kerker type mixing with AMIX =  0.4000 and BMIX =      1.0000
 Hartree-type preconditioning will be used
 using additional bands           32
 reciprocal scheme for non local part
 use partial core corrections
 calculate Harris-corrections to forces
   (improved forces if not selfconsistent)
 use gradient corrections
 use of overlap-Matrix (Vanderbilt PP)
 Gauss-broadening in eV      SIGMA  =   0.02

  energy-cutoff  :      200.00
  volume of cell :      163.67
      direct lattice vectors                 reciprocal lattice vectors
     5.470000000  0.000000000  0.000000000     0.182815356  0.000000000  0.000000000
     0.000000000  5.470000000  0.000000000     0.000000000  0.182815356  0.000000000
     0.000000000  0.000000000  5.470000000     0.000000000  0.000000000  0.182815356

  length of vectors
     5.470000000  5.470000000  5.470000000     0.182815356  0.182815356  0.182815356

 k-points in units of 2pi/SCALE and weight: Automatic mesh
   0.00000000  0.00000000  0.00000000       1.000

 k-points in reciprocal lattice and weights: Automatic mesh
   0.00000000  0.00000000  0.00000000       1.000

 position of ions in fractional coordinates (direct lattice)
   0.99928155  0.99999585  0.99989487
   0.24999585  0.24989487  0.25028571
   0.49989487  0.50028571  0.00002957
   0.75028571  0.75002957  0.25060578
   0.50002957  0.00060578  0.49931806
   0.75060578  0.24931806  0.75003397
   0.99931806  0.50003397  0.50014955
   0.25003397  0.75014955  0.75003187

 position of ions in cartesian coordinates  (Angst):
   5.46607010  5.46997731  5.46942495
   1.36747731  1.36692495  1.36906286
[...]
  rms(prec ) = 0.28805E-05
  weight for this iteration     100.00
  WARNING: grid for Broyden might be to small

[...]

 eigenvalue-minimisations  :    39
 total energy-change (2. order) : 0.4736080E-08  (-0.1289635E-11)
 number of electron      31.9999999 magnetization
 augmentation part       -1.7274266 magnetization

 Free energy of the ion-electron system (eV)
  alpha Z        PSCENC =        12.68944982
  Ewald energy   TEWEN  =      -907.56621801
  -1/2 Hartree   DENC   =       -70.83331929
  -exchange  EXHF       =         0.00000000
  -V(xc)+E(xc)   XCENC  =       -72.91073981
  PAW double counting   =       307.74223482     -166.58346689
  entropy T*S    EENTRO =         0.00000000
  eigenvalues    EBANDS =        37.86369580
  atomic energy  EATOM  =       826.37398168
  free energy    TOTEN  =       -33.22438188 eV

  energy without entropy =      -33.22438188  energy(sigma->0) =      -33.22438188

 average (electrostatic) potential at core
  the test charge radii are     0.9892
  (the norm of the test charge is              1.0000)
       1 -83.2286       2 -83.2266       3 -83.2237       4 -83.2292       5 -83.2284
       6 -83.2287       7 -83.2283       8 -83.2245

 E-fermi :   6.0588     XC(G=0):  -9.1311     alpha+bet :-11.7379

 k-point   1 :       0.0000    0.0000    0.0000
  band No.  band energies     occupation
      1      -5.9500      2.00000
      2      -1.8798      2.00000
      3      -1.8741      2.00000
      4      -1.8692      2.00000
      5      -1.8641      2.00000
      6      -1.8538      2.00000
      7      -1.8486      2.00000
      8       3.0435      2.00000
      9       3.0450      2.00000
     10       3.0504      2.00000
     11       3.0508      2.00000
     12       3.0568      2.00000
     13       3.0585      2.00000
     14       5.8970      2.00000
     15       5.9310      2.00000
     16       5.9385      2.00000
     17       6.5814      0.00000
     18       6.5904      0.00000
     19       6.5935      0.00000
     20       6.5953      0.00000
     21       6.6061      0.00000
     22       6.6078      0.00000
     23       8.3697      0.00000
     24       8.3742      0.00000
     25       8.3946      0.00000
     26       9.0555      0.00000
     27      13.6115      0.00000
     28      13.6116      0.00000
     29      13.8256      0.00000
     30      15.8197      0.00000
     31      15.8234      0.00000
     32      15.8269      0.00000
     33      15.8293      0.00000
     34      15.8331      0.00000
     35      15.8354      0.00000
     36      16.9430      0.00000
     37      16.9478      0.00000
     38      16.9679      0.00000
     39      16.9730      0.00000
     40      16.9789      0.00000
     41      16.9818      0.00000
     42      16.9907      0.00000
     43      16.9965      0.00000
     44      16.9980      0.00000
     45      18.7162      0.00000
     46      18.7220      0.00000
     47      18.7271      0.00000
     48      18.7467      0.00000

 soft charge-density along one line, spin component           1
         0         1         2         3         4         5         6         7         8         9
 total charge-density along one line

------------------------ aborting loop because EDIFF is reached ----------------------------------------

  FORCE on cell =-STRESS in cart. coord.  units (eV):
  Direction    XX          YY          ZZ          XY          YZ          ZX
  Alpha Z    12.68945    12.68945    12.68945
  Ewald    -302.52516  -302.52106  -302.52154    -0.66435    -1.01686     0.64871
  Hartree    23.61042    23.61150    23.61139    -0.07119    -0.10907     0.06955
  E(xc)    -103.19389  -103.19390  -103.19390     0.00509     0.00776    -0.00496
  Local    -125.93121  -125.93572  -125.93517     0.69486     1.06372    -0.67846
  n-local   306.84511   306.84535   306.84532    -0.13987    -0.21379     0.13642
  augment   -43.93287   -43.93290   -43.93290     0.00637     0.00972    -0.00620
  Kinetic   240.71828   240.71910   240.71921     0.07885     0.12074    -0.07716
  Fock        0.00000     0.00000     0.00000     0.00000     0.00000     0.00000
  Total       8.28013     8.28183     8.28185    -0.09025    -0.13779     0.08790
  in kB      81.05609    81.07276    81.07298    -0.88352    -1.34881     0.86046

 VOLUME and BASIS-vectors are now :
  energy-cutoff  :      200.00
  volume of cell :      163.67
      direct lattice vectors                 reciprocal lattice vectors
     5.470000000  0.000000000  0.000000000     0.182815356  0.000000000  0.000000000
     0.000000000  5.470000000  0.000000000     0.000000000  0.182815356  0.000000000
     0.000000000  0.000000000  5.470000000     0.000000000  0.000000000  0.182815356

  length of vectors
     5.470000000  5.470000000  5.470000000     0.182815356  0.182815356  0.182815356

 FORCES acting on ions
    electron-ion (+dipol)            ewald-force                    non-local-force                 convergence-correction
   -.272E+00 0.834E-01 -.110E+00   0.222E+00 -.752E-01 0.998E-01   0.131E+00 -.507E-01 0.597E-01   -.481E-06 0.494E-07 -.719E-06
   0.955E-01 -.164E+00 0.203E+00   -.986E-01 0.132E+00 -.163E+00   -.637E-01 0.819E-01 -.976E-01   0.579E-06 0.751E-07 0.437E-06
   0.606E-02 0.438E-01 0.139E+00   0.238E-01 -.489E-01 -.864E-01   0.227E-01 -.323E-01 -.401E-01   -.401E-06 0.337E-06 0.268E-06
   0.830E-01 0.166E+00 0.116E+00   -.810E-01 -.104E+00 -.993E-01   -.570E-01 -.522E-01 -.595E-01   -.347E-06 0.285E-06 0.287E-06
   0.209E+00 0.867E-01 -.169E+00   -.127E+00 -.793E-01 0.141E+00   -.588E-01 -.475E-01 0.805E-01   0.427E-06 0.117E-06 -.643E-06
   0.297E+00 -.193E+00 -.169E+00   -.241E+00 0.156E+00 0.106E+00   -.142E+00 0.891E-01 0.530E-01   0.811E-06 -.363E-06 -.294E-06
   -.232E+00 -.283E-01 -.512E-01   0.192E+00 0.472E-02 0.500E-01   0.115E+00 -.434E-02 0.386E-01   -.332E-06 -.297E-06 0.120E-06
   -.186E+00 0.493E-02 0.406E-01   0.111E+00 0.142E-01 -.479E-01   0.517E-01 0.157E-01 -.338E-01   -.173E-06 -.215E-06 0.497E-06
   0.468E-03 0.328E-03 -.673E-03   0.666E-15 0.262E-14 0.589E-14   -.463E-03 -.329E-03 0.671E-03   0.815E-07 -.111E-07 -.470E-07

 POSITION                                       TOTAL-FORCE (eV/Angst)
      5.46607      5.46998      5.46942         0.080757     -0.042504      0.049936
      1.36748      1.36692      1.36906        -0.066780      0.050444     -0.057321
      2.73442      2.73656      0.00016         0.052536     -0.037403      0.012766
      4.10406      4.10266      1.37081        -0.054944      0.010190     -0.043137
      2.73516      0.00331      2.73127         0.023398     -0.040097      0.051590
      4.10581      1.36377      4.10269        -0.085921      0.052510     -0.010106
      5.46627      2.73519      2.73582         0.074664     -0.027955      0.037431
      1.36769      4.10332      4.10267        -0.023711      0.034816     -0.041159
    total drift:                                0.000004     -0.000001     -0.000002

  FREE ENERGIE OF THE ION-ELECTRON SYSTEM (eV)
  free  energy   TOTEN  =       -33.22438188 eV

  energy  without entropy=      -33.22438188  energy(sigma->0) =      -33.22438188

 stress matrix after NEB project (eV)
      8.28013     -0.09025      0.08790
     -0.09025      8.28183     -0.13779
      0.08790     -0.13779      8.28185
  FORCES: max atom, RMS     0.104029    0.084189
  FORCE total and by dimension    0.238121    0.085921
  Stress total and by dimension   14.346012    8.281853
 Linear response reoptimize wavefunctions
 Linear response G [H, r] |phi>, progress :
  Direction:   1

[...]

  free energy    TOTEN  =      -456.82764214 eV

[...]

 Linear response G [H, r] |phi>, progress :
  Direction:   2

[...]

 Linear response G [H, r] |phi>, progress :
  Direction:   3

[...]

  free energy    TOTEN  =      -267.96092875 eV

[...]

 Linear response to external field (no local field effect), progress :
  Direction:   1
  LATTYP: Found a simple cubic cell.
 ALAT       =     5.4700000000

[...]

 Free energy of the ion-electron system (eV)
  -1/2 Hartree   DENC   =         0.00000000
  -V(xc)+E(xc)   XCENC  =         0.00000000
  PAW double counting   =         0.00000000        0.00000000
  entropy T*S    EENTRO =         0.00000000
  eigenvalues    EBANDS =       -24.49838406
  free energy    TOTEN  =       -24.49838406 eV

  energy without entropy =      -24.49838406

[...]

 change of polarisation eV/A/(eV/A) component  1 :    52.804     0.256    -0.254
 dielectric tensor                  component  1 :    59.381     0.283    -0.281

[...]

 Linear response to external field (no local field effect), progress :
  Direction:   3
  LATTYP: Found a simple cubic cell.
 ALAT       =     5.4700000000

[...]

 HEAD OF MICROSCOPIC STATIC DIELECTRIC TENSOR (independent particle, excluding Hartree and local field effects)
          59.381185     0.282988    -0.281296
           0.282989    59.370201     0.440576
          -0.281296     0.440576    59.371036

 Linear response to external field, progress :
  Direction:   1
  LATTYP: Found a simple cubic cell.
 ALAT       =     5.4700000000

[...]

 PIEZOELECTRIC TENSOR FIELD DIRECTION 1  (e Angst)
     0.00515  0.00237 -0.00596           ( -0.00001 -0.00002  0.00001)
     0.00237 -0.00298  0.00249           ( -0.00002 -0.00001  0.00001)
    -0.00596  0.00249 -0.00069           (  0.00001  0.00001 -0.00001)

 PIEZOELECTRIC TENSOR FIELD DIRECTION 1  (C/m^2)
     0.00050  0.00023 -0.00058
     0.00023 -0.00029  0.00024
    -0.00058  0.00024 -0.00007

      POSITION         DIRECTION 1           BORN EFFECTIVE CHARGE    (rigid.aug.   ionic)
      5.46607      5.46998      5.46942    -5.74072  0.10324 -0.04147 (  0.21594  4.00000)
      1.36748      1.36692      1.36906    -5.81073 -0.05693  0.03503 (  0.21592  4.00000)
      2.73442      2.73656      0.00016    -5.85373 -0.11423  0.04761 (  0.21590  4.00000)
      4.10406      4.10266      1.37081    -5.71642  0.03693  0.07685 (  0.21595  4.00000)
      2.73516      0.00331      2.73127    -5.77413  0.07583  0.05419 (  0.21594  4.00000)
      4.10581      1.36377      4.10269    -5.73528 -0.01666 -0.02279 (  0.21594  4.00000)
      5.46627      2.73519      2.73582    -5.74039 -0.09813 -0.02747 (  0.21594  4.00000)
      1.36769      4.10332      4.10267    -5.84566  0.00779 -0.06061 (  0.21590  4.00000)
    total drift (improves with k-points): -46.21704 -0.06215  0.06135

[...]

 Linear response to external field, progress :
  Direction:   3
  LATTYP: Found a simple cubic cell.
 ALAT       =     5.4700000000

[...]

----------------------------------------- Iteration    3(  13)  ---------------------------------------

 Broyden mixing:
  rms(total) = 0.37478E-06    rms(broyden)= 0.37469E-06
  rms(prec ) = 0.59286E-06
  weight for this iteration     100.00

 eigenvalues of (default mixing * dielectric matrix)
  average eigenvalue GAMMA=   1.8068
  3.2094  2.8124  2.4366  2.5955  1.6781  1.6350  0.9904  0.9904  1.2649  1.1154
  1.1463

 Free energy of the ion-electron system (eV)
  -1/2 Hartree   DENC   =        -4.62886541
  -V(xc)+E(xc)   XCENC  =         0.95810344
  PAW double counting   =         3.07171083       -3.12065760
  entropy T*S    EENTRO =         0.00000000
  eigenvalues    EBANDS =       -24.56478544
  free energy    TOTEN  =       -28.28449418 eV

  energy without entropy =      -28.28449418

------------------------ aborting loop because EDIFF is reached ----------------------------------------

 change of polarisation eV/A/(eV/A) component  3 :    -0.250     0.393    50.530
 dielectric tensor                  component  3 :    -0.277     0.434    56.867

 PIEZOELECTRIC TENSOR FIELD DIRECTION 3  (e Angst)
    -0.00355 -0.00282  0.00368           (  0.00001  0.00000  0.00000)
    -0.00282  0.01012 -0.00075           (  0.00000  0.00000  0.00000)
     0.00368 -0.00075 -0.00691           (  0.00000  0.00000  0.00001)

 PIEZOELECTRIC TENSOR FIELD DIRECTION 3  (C/m^2)
    -0.00035 -0.00028  0.00036
    -0.00028  0.00099 -0.00007
     0.00036 -0.00007 -0.00068

      POSITION         DIRECTION 3           BORN EFFECTIVE CHARGE    (rigid.aug.   ionic)
      5.46607      5.46998      5.46942     0.02708 -0.08165 -5.76542 (  0.21594  4.00000)
      1.36748      1.36692      1.36906    -0.04150  0.10266 -5.78295 (  0.21592  4.00000)
      2.73442      2.73656      0.00016    -0.03699 -0.00845 -5.84974 (  0.21590  4.00000)
      4.10406      4.10266      1.37081    -0.02035 -0.11886 -5.73132 (  0.21595  4.00000)
      2.73516      0.00331      2.73127    -0.01800 -0.01134 -5.74995 (  0.21594  4.00000)
      4.10581      1.36377      4.10269     0.05592  0.08862 -5.76150 (  0.21594  4.00000)
      5.46627      2.73519      2.73582     0.05793  0.05434 -5.74455 (  0.21594  4.00000)
      1.36769      4.10332      4.10267     0.03716 -0.12279 -5.82911 (  0.21590  4.00000)
    total drift (improves with k-points):   0.06125 -0.09748-46.21453

[...]

 MACROSCOPIC STATIC DIELECTRIC TENSOR (including local field effects in DFT)
          56.874593     0.279537    -0.276686
           0.279543    56.868099     0.434333
          -0.276681     0.434338    56.866690

  LATTYP: Found a simple cubic cell.
 ALAT       =     5.4700000000

  Lattice vectors:

 A1 = (   5.4700000000,   0.0000000000,   0.0000000000)
 A2 = (   0.0000000000,   5.4700000000,   0.0000000000)
 A3 = (   0.0000000000,   0.0000000000,   5.4700000000)

Analysis of symmetry for initial positions (statically):
 Subroutine PRICEL returns:
 Original cell was already a primitive cell.

[...]

The static configuration has the point symmetry C_1 .

Analysis of symmetry for dynamics (positions and initial velocities):
 Subroutine PRICEL returns:
 Original cell was already a primitive cell.

 Routine SETGRP: Setting up the symmetry group for a
 simple cubic supercell.

 Subroutine GETGRP returns: Found  1 space group operations
 (whereof  1 operations were pure point group operations)
 out of a pool of 48 trial point group operations.

The dynamic configuration has the point symmetry C_1 .

 KPOINTS: Automatic mesh

Automatic generation of k-mesh.
Space group operators:
 irot       det(A)        alpha          n_x          n_y          n_z        tau_x        tau_y        tau_z
    1     1.000000     0.000001     1.000000     0.000000     0.000000     0.000000     0.000000     0.000000

 Subroutine IBZKPT returns following result:

 Found      1 irreducible k-points:

 Following reciprocal coordinates:
            Coordinates               Weight
  0.000000  0.000000  0.000000      1.000000

 Following cartesian coordinates:
            Coordinates               Weight
  0.000000  0.000000  0.000000      1.000000

 MACROSCOPIC STATIC DIELECTRIC TENSOR (including local field effects in DFT)
          56.874593     0.279537    -0.276686
           0.279543    56.868099     0.434333
          -0.276681     0.434338    56.866690

 PIEZOELECTRIC TENSOR  for field in x, y, z        (e  Angst)
          XX          YY          ZZ          XY          YZ          ZX
  x     0.00515    -0.00298    -0.00069     0.00237     0.00249    -0.00596
  y     0.00801     0.00260    -0.00671     0.00306    -0.00373    -0.00008
  z    -0.00355     0.01012    -0.00691    -0.00282    -0.00075     0.00368

 PIEZOELECTRIC TENSOR  for field in x, y, z        (C/m^2)
          XX          YY          ZZ          XY          YZ          ZX
  x     0.00050    -0.00029    -0.00007     0.00023     0.00024    -0.00058
  y     0.00078     0.00025    -0.00066     0.00030    -0.00037    -0.00001
  z    -0.00035     0.00099    -0.00068    -0.00028    -0.00007     0.00036

 BORN EFFECTIVE CHARGES (in e, cummulative output)
 ion    1
    1    -5.74072     0.10324    -0.04147
    2    -0.08089    -5.73685     0.06253
    3     0.02708    -0.08165    -5.76542
 ion    2
    1    -5.81073    -0.05693     0.03503
    2     0.06796    -5.77925    -0.07445
    3    -0.04150     0.10266    -5.78295
 ion    3
    1    -5.85373    -0.11423     0.04761
    2     0.06965    -5.85870     0.01970
    3    -0.03699    -0.00845    -5.84974
 ion    4
    1    -5.71642     0.03693     0.07685
    2    -0.09002    -5.74863     0.06096
    3    -0.02035    -0.11886    -5.73132
 ion    5
    1    -5.77413     0.07583     0.05419
    2    -0.10478    -5.74083    -0.04005
    3    -0.01800    -0.01134    -5.74995
 ion    6
    1    -5.73528    -0.01666    -0.02279
    2    -0.02961    -5.74550    -0.09020
    3     0.05592     0.08862    -5.76150
 ion    7
    1    -5.74039    -0.09813    -0.02747
    2     0.08565    -5.77429    -0.09022
    3     0.05793     0.05434    -5.74455
 ion    8
    1    -5.84566     0.00779    -0.06061
    2     0.01962    -5.83272     0.05446
    3     0.03716    -0.12279    -5.82911