 vasp.5.3.3 18Dez12 (build Jan  9 2014 12:00:49) complex

 executed on             LinuxIFC date 2014.01.29  10:09:32

 INCAR:
 POTCAR:    PAW Si

 POTCAR:    PAW Si
   VRHFIN =Si: s2p2

   TITEL  = PAW Si
   POMASS =   28.085; ZVAL   =    4.000    mass and valenz
   ENMAX  =  245.435; ENMIN  =  184.076 eV
   QCUT   =   -4.247; QGAM   =    8.494    optimization parameters

   Description
     l     E      TYP  RCUT    TYP  RCUT
     0   .000     23  1.900
     0   .000     23  1.900
     1   .000     23  1.900
     1   .000     23  1.900
     2   .000      7  1.900

  PAW Si                                :

 POSCAR: OUTCAR.0019.-1.out 1.0e-02
  positions in cartesian coordinates
 exchange correlation table for  LEXCH =        7
   RHO(1)=    0.500       N(1)  =     2000
   RHO(2)=  100.500       N(2)  =     4000

 VTST: version 3.0c, (01/09/14)

 CHAIN: initializing optimizer

 OPT: Using VASP Dynamics algorithm
 CHAIN: Read ICHAIN            0

 POSCAR: OUTCAR.0019.-1.out 1.0e-02
  positions in cartesian coordinates

 ion  position               nearest neighbor table
   1  1.000  1.000  0.000-   2 2.37   6 2.37   4 2.37   8 2.37
   2  0.250  0.250  0.249-   3 2.36   1 2.37   7 2.37   5 2.37
   3  0.500  0.499  1.000-   2 2.36   6 2.36   4 2.37   8 2.37
   4  0.749  0.750  0.250-   5 2.37   3 2.37   7 2.37   1 2.37
   5  0.500  1.000  0.500-   4 2.37   8 2.37   6 2.37   2 2.37
   6  0.750  0.250  0.750-   3 2.36   1 2.37   5 2.37   7 2.37
   7  1.000  0.500  0.499-   8 2.37   4 2.37   2 2.37   6 2.37
   8  0.250  0.749  0.750-   7 2.37   5 2.37   3 2.37   1 2.37

  LATTYP: Found a simple cubic cell.
 ALAT       =     5.4700000000

  Lattice vectors:

 A1 = (   5.4700000000,   0.0000000000,   0.0000000000)
 A2 = (   0.0000000000,   5.4700000000,   0.0000000000)
 A3 = (   0.0000000000,   0.0000000000,   5.4700000000)

Analysis of symmetry for initial positions (statically):
 Subroutine PRICEL returns:
 Original cell was already a primitive cell.

 Routine SETGRP: Setting up the symmetry group for a
 simple cubic supercell.

 Subroutine GETGRP returns: Found  1 space group operations
 (whereof  1 operations were pure point group operations)
 out of a pool of 48 trial point group operations.

The static configuration has the point symmetry C_1 .

Analysis of symmetry for dynamics (positions and initial velocities):
 Subroutine PRICEL returns:
 Original cell was already a primitive cell.

[...]

The dynamic configuration has the point symmetry C_1 .

 irot  :   1
 isymop:   1   0   0
           0   1   0
           0   0   1

 gtrans:     0.0000000     0.0000000     0.0000000

 ptrans:     0.0000000     0.0000000     0.0000000
 rotmap:
 (   1->   1)  (   2->   2)  (   3->   3)  (   4->   4)  (   5->   5)
 (   6->   6)  (   7->   7)  (   8->   8)

 KPOINTS: Automatic mesh

Automatic generation of k-mesh.
Space group operators:
 irot       det(A)        alpha          n_x          n_y          n_z        tau_x        tau_y        tau_z
    1     1.000000     0.000001     1.000000     0.000000     0.000000     0.000000     0.000000     0.000000

 Subroutine IBZKPT returns following result:

 Found      1 irreducible k-points:

 Following reciprocal coordinates:
            Coordinates               Weight
  0.000000  0.000000  0.000000      1.000000

 Following cartesian coordinates:
            Coordinates               Weight
  0.000000  0.000000  0.000000      1.000000

 Subroutine IBZKPT_HF returns following result:

 Found      1 k-points in 1st BZ
 the following      1 k-points will be used (e.g. in the exchange kernel)
 Following reciprocal coordinates:   # in IRBZ
  0.000000  0.000000  0.000000       1 t-inv F

 I would recommend the setting:
   dimension x,y,z NGX =    19 NGY =   19 NGZ =   19
 SYSTEM =  NAPTHA04
 POSCAR =  OUTCAR.0019.-1.out 1.0e-02

 Startparameter for this run:
   NWRITE =      3    write-flag & timer
   PREC   = normal    normal or accurate (medium, high low for compatibility)
   ISTART =      0    job   : 0-new  1-cont  2-samecut
   ICHARG =      2    charge: 1-file 2-atom 10-const
   ISPIN  =      1    spin polarized calculation?
   LNONCOLLINEAR =      F non collinear calculations
   LSORBIT =      F    spin-orbit coupling
   INIWAV =      1    electr: 0-lowe 1-rand  2-diag
   LASPH  =      F    aspherical Exc in radial PAW
   METAGGA=      F    non-selfconsistent MetaGGA calc.

 Electronic Relaxation 1
   ENCUT  =  200.0 eV  14.70 Ry    3.83 a.u.   6.31  6.31  6.31*2*pi/ulx,y,z
   ENINI  =  200.0     initial cutoff
   ENAUG  =  322.1 eV  augmentation charge cutoff
   NELM   =     60;   NELMIN=  2; NELMDL= -5     # of ELM steps
   EDIFF  = 0.1E-07   stopping-criterion for ELM
   LREAL  =      F    real-space projection
   NLSPLINE    = F    spline interpolate recip. space projectors
   LCOMPAT=      F    compatible to vasp.4.4
   GGA_COMPAT  = T    GGA compatible to vasp.4.4-vasp.4.6
   LMAXPAW     = -100 max onsite density
   LMAXMIX     =    2 max onsite mixed and CHGCAR
   VOSKOWN=      0    Vosko Wilk Nusair interpolation
   ROPT   =    0.00000
 Ionic relaxation
   EDIFFG = 0.1E-06   stopping-criterion for IOM
   NSW    =      0    number of steps for IOM
   NBLOCK =      1;   KBLOCK =      1    inner block; outer block
   IBRION =     -1    ionic relax: 0-MD 1-quasi-New 2-CG
   NFREE  =      0    steps in history (QN), initial steepest desc. (CG)
   ISIF   =      2    stress and relaxation
   IWAVPR =     10    prediction:  0-non 1-charg 2-wave 3-comb
   ISYM   =      2    0-nonsym 1-usesym 2-fastsym
   LCORR  =      T    Harris-Foulkes like correction to forces

   POTIM  = 0.5000    time-step for ionic-motion
   TEIN   =    0.0    initial temperature
   TEBEG  =    0.0;   TEEND  =   0.0 temperature during run
   SMASS  =  -3.00    Nose mass-parameter (am)
   estimated Nose-frequenzy (Omega)   =  0.10E-29 period in steps =****** mass=  -0.684E-27a.u.
   SCALEE = 1.0000    scale energy and forces
   NPACO  =    256;   APACO  = 16.0  distance and # of slots for P.C.
   PSTRESS=    0.0 pullay stress

  Mass of Ions in am
   POMASS =  28.09
  Ionic Valenz
   ZVAL   =   4.00
  Atomic Wigner-Seitz radii
  virtual crystal weights
   VCA    =   1.00
   NELECT =      32.0000    total number of electrons
   NUPDOWN=      -1.0000    fix difference up-down

 DOS related values:
   EMIN   =  10.00;   EMAX   =-10.00  energy-range for DOS
   EFERMI =   0.00
   ISMEAR =     0;   SIGMA  =   0.02  broadening in eV -4-tet -1-fermi 0-gaus

 Electronic relaxation 2 (details)
   IALGO  =     68    algorithm
   LDIAG  =      T    sub-space diagonalisation (order eigenvalues)
   LSUBROT=      T    optimize rotation matrix (better conditioning)
   TURBO    =      0    0=normal 1=particle mesh
   IRESTART =      0    0=no restart 2=restart with 2 vectors
   NREBOOT  =      0    no. of reboots
   NMIN     =      0    reboot dimension
   EREF     =   0.00    reference energy to select bands
   IMIX   =      4    mixing-type and parameters
     AMIX     =   0.40;   BMIX     =  1.00
     AMIX_MAG =   1.60;   BMIX_MAG =  1.00
     AMIN     =   0.10
     WC   =   100.;   INIMIX=   1;  MIXPRE=   1;  MAXMIX= -45

 Intra band minimization:
   WEIMIN = 0.0000     energy-eigenvalue tresh-hold
   EBREAK =  0.52E-10  absolut break condition
   DEPER  =   0.30     relativ break condition

   TIME   =   0.40     timestep for ELM

  volume/ion in A,a.u.               =      20.46       138.06
  Fermi-wavevector in a.u.,A,eV,Ry     =   0.950176  1.795573 12.283814  0.902835
  Thomas-Fermi vector in A             =   2.078528

 Write flags
   LWAVE  =      F    write WAVECAR
   LCHARG =      F    write CHGCAR
   LVTOT  =      F    write LOCPOT, total local potential
   LVHAR  =      F    write LOCPOT, Hartree potential only
   LELF   =      F    write electronic localiz. function (ELF)
   LORBIT =      0    0 simple, 1 ext, 2 COOP (PROOUT)

 Dipole corrections
   LMONO  =      F    monopole corrections only (constant potential shift)
   LDIPOL =      F    correct potential (dipole corrections)
   IDIPOL =      0    1-x, 2-y, 3-z, 4-all directions
   EPSILON=  1.0000000 bulk dielectric constant

 Exchange correlation treatment:
   GGA     =    --    GGA type
   VOSKOWN=      0    Vosko Wilk Nusair interpolation
   LHFCALC =     F    Hartree Fock is set to
   LHFONE  =     F    Hartree Fock one center treatment
   AEXX    =    0.0000 exact exchange contribution

 Linear response parameters
   LEPSILON=     T    determine dielectric tensor
   LRPA    =     F    only Hartree local field effects (RPA)
   LNABLA  =     F    use nabla operator in PAW spheres
   LVEL    =     F    velocity operator in full k-point grid
   LINTERFAST=   F  fast interpolation
   KINTER  =     0    interpolate to denser k-point grid
   CSHIFT  =0.1000    complex shift for real part using Kramers Kronig
   OMEGAMAX=  -1.0    maximum frequency
   DEG_THRESHOLD= 0.2000000E-02 threshold for treating states as degnerate
   RTIME   =    0.100 relaxation time in fs

 Orbital magnetization related:
   ORBITALMAG=     F  switch on orbital magnetization
   LCHIMAG   =     F  perturbation theory with respect to B field
   DQ        =  0.001000  dq finite difference perturbation B field

 Static calculation
 charge density and potential will be updated during run
 non-spin polarized calculation
 RMM-DIIS sequential band-by-band and
  variant of blocked Davidson during initial phase
 perform sub-space diagonalisation
    before iterative eigenvector-optimisation
 modified Broyden-mixing scheme, WC =      100.0
 initial mixing is a Kerker type mixing with AMIX =  0.4000 and BMIX =      1.0000
 Hartree-type preconditioning will be used
 using additional bands           32
 reciprocal scheme for non local part
 use partial core corrections
 calculate Harris-corrections to forces
   (improved forces if not selfconsistent)
 use gradient corrections
 use of overlap-Matrix (Vanderbilt PP)
 Gauss-broadening in eV      SIGMA  =   0.02

  energy-cutoff  :      200.00
  volume of cell :      163.67
      direct lattice vectors                 reciprocal lattice vectors
     5.470000000  0.000000000  0.000000000     0.182815356  0.000000000  0.000000000
     0.000000000  5.470000000  0.000000000     0.000000000  0.182815356  0.000000000
     0.000000000  0.000000000  5.470000000     0.000000000  0.000000000  0.182815356

  length of vectors
     5.470000000  5.470000000  5.470000000     0.182815356  0.182815356  0.182815356

 k-points in units of 2pi/SCALE and weight: Automatic mesh
   0.00000000  0.00000000  0.00000000       1.000

 k-points in reciprocal lattice and weights: Automatic mesh
   0.00000000  0.00000000  0.00000000       1.000

 position of ions in fractional coordinates (direct lattice)
   0.99960024  0.99999836  0.00018940
   0.24999836  0.25018940  0.24924354
   0.50018940  0.49924354  0.99970370
   0.74924354  0.74970370  0.24993028
   0.49970370  0.99993028  0.49985908
   0.74993028  0.24985908  0.74998575
   0.99985908  0.49998575  0.49935876
   0.24998575  0.74935876  0.74955559

 position of ions in cartesian coordinates  (Angst):
   5.46781332  5.46999101  0.00103600
   1.36749101  1.36853600  1.36336217
[...]
 number of electron      31.9999999 magnetization
 augmentation part       -1.7274235 magnetization

[...]

 eigenvalue-minimisations  :    71
 total energy-change (2. order) :-0.2190177E-08  (-0.2515677E-10)
 number of electron      31.9999999 magnetization
 augmentation part       -1.7274235 magnetization

 Free energy of the ion-electron system (eV)
  alpha Z        PSCENC =        12.68944982
  Ewald energy   TEWEN  =      -907.56730837
  -1/2 Hartree   DENC   =       -70.83295270
  -exchange  EXHF       =         0.00000000
  -V(xc)+E(xc)   XCENC  =       -72.91074953
  PAW double counting   =       307.74150948     -166.58272052
  entropy T*S    EENTRO =         0.00000000
  eigenvalues    EBANDS =        37.86370124
  atomic energy  EATOM  =       826.37398168
  free energy    TOTEN  =       -33.22508891 eV

  energy without entropy =      -33.22508891  energy(sigma->0) =      -33.22508891

 average (electrostatic) potential at core
  the test charge radii are     0.9892
  (the norm of the test charge is              1.0000)
       1 -83.2253       2 -83.2285       3 -83.2301       4 -83.2278       5 -83.2265
       6 -83.2279       7 -83.2270       8 -83.2248

 E-fermi :   6.0558     XC(G=0):  -9.1311     alpha+bet :-11.7379

 k-point   1 :       0.0000    0.0000    0.0000
  band No.  band energies     occupation
      1      -5.9500      2.00000
      2      -1.8758      2.00000
      3      -1.8689      2.00000
      4      -1.8662      2.00000
      5      -1.8643      2.00000
      6      -1.8622      2.00000
      7      -1.8522      2.00000
      8       3.0463      2.00000
      9       3.0475      2.00000
     10       3.0511      2.00000
     11       3.0516      2.00000
     12       3.0522      2.00000
     13       3.0561      2.00000
     14       5.9190      2.00000
     15       5.9224      2.00000
     16       5.9250      2.00000
     17       6.5882      0.00000
     18       6.5913      0.00000
     19       6.5940      0.00000
     20       6.5975      0.00000
     21       6.5996      0.00000
     22       6.6040      0.00000
     23       8.3778      0.00000
     24       8.3794      0.00000
     25       8.3814      0.00000
     26       9.0555      0.00000
     27      13.6115      0.00000
     28      13.6115      0.00000
     29      13.8256      0.00000
     30      15.8195      0.00000
     31      15.8258      0.00000
     32      15.8270      0.00000
     33      15.8278      0.00000
     34      15.8318      0.00000
     35      15.8359      0.00000
     36      16.9514      0.00000
     37      16.9531      0.00000
     38      16.9559      0.00000
     39      16.9760      0.00000
     40      16.9779      0.00000
     41      16.9866      0.00000
     42      16.9882      0.00000
     43      16.9904      0.00000
     44      16.9990      0.00000
     45      18.7243      0.00000
     46      18.7312      0.00000
     47      18.7365      0.00000
     48      18.7406      0.00000

 soft charge-density along one line, spin component           1
         0         1         2         3         4         5         6         7         8         9
 total charge-density along one line

------------------------ aborting loop because EDIFF is reached ----------------------------------------

  FORCE on cell =-STRESS in cart. coord.  units (eV):
  Direction    XX          YY          ZZ          XY          YZ          ZX
  Alpha Z    12.68945    12.68945    12.68945
  Ewald    -302.52146  -302.52410  -302.52329     0.16677     0.08274     0.01836
  Hartree    23.61137    23.61054    23.61098     0.01786     0.00872     0.00206
  E(xc)    -103.19382  -103.19386  -103.19385    -0.00132    -0.00063    -0.00017
  Local    -125.93451  -125.93225  -125.93326    -0.17572    -0.08598    -0.02062
  n-local   306.84425   306.84483   306.84467     0.03572     0.01742     0.00428
  augment   -43.93277   -43.93285   -43.93286    -0.00171    -0.00075    -0.00030
  Kinetic   240.71837   240.71805   240.71861    -0.01955    -0.01038    -0.00153
  Fock        0.00000     0.00000     0.00000     0.00000     0.00000     0.00000
  Total       8.28088     8.27980     8.28045     0.02205     0.01113     0.00207
  in kB      81.06347    81.05291    81.05924     0.21582     0.10894     0.02031

 VOLUME and BASIS-vectors are now :
  energy-cutoff  :      200.00
  volume of cell :      163.67
      direct lattice vectors                 reciprocal lattice vectors
     5.470000000  0.000000000  0.000000000     0.182815356  0.000000000  0.000000000
     0.000000000  5.470000000  0.000000000     0.000000000  0.182815356  0.000000000
     0.000000000  0.000000000  5.470000000     0.000000000  0.000000000  0.182815356

  length of vectors
     5.470000000  5.470000000  5.470000000     0.182815356  0.182815356  0.182815356

 FORCES acting on ions
    electron-ion (+dipol)            ewald-force                    non-local-force                 convergence-correction
   -.132E+00 0.304E+00 0.895E-01   0.947E-01 -.223E+00 -.687E-01   0.502E-01 -.123E+00 -.365E-01   0.152E-06 -.363E-06 0.823E-06
   0.730E-01 0.152E+00 -.156E+00   -.492E-01 -.109E+00 0.120E+00   -.261E-01 -.580E-01 0.638E-01   -.241E-06 -.153E-06 -.320E-06
   0.235E-01 -.237E+00 0.118E+00   -.185E-01 0.174E+00 -.881E-01   -.875E-02 0.920E-01 -.529E-01   0.576E-06 0.556E-06 0.493E-07
   -.204E-01 -.120E+00 0.315E-01   0.152E-01 0.845E-01 -.222E-01   0.545E-02 0.490E-01 -.700E-02   -.596E-06 -.188E-06 0.263E-06
   0.107E+00 -.108E+00 -.959E-01   -.784E-01 0.829E-01 0.638E-01   -.469E-01 0.453E-01 0.365E-01   0.378E-06 -.946E-07 -.945E-07
   -.213E+00 0.116E+00 0.264E+00   0.156E+00 -.809E-01 -.192E+00   0.909E-01 -.466E-01 -.102E+00   -.254E-06 -.172E-06 -.165E-06
   0.247E-01 0.475E-01 -.642E-01   -.228E-01 -.399E-01 0.427E-01   -.114E-01 -.179E-01 0.184E-01   -.161E-06 0.774E-06 -.728E-06
   0.138E+00 -.153E+00 -.187E+00   -.968E-01 0.111E+00 0.145E+00   -.531E-01 0.594E-01 0.790E-01   0.498E-07 -.364E-06 0.209E-06
   -.232E-03 -.288E-04 0.359E-03   -.114E-14 0.254E-14 -.444E-15   0.238E-03 0.354E-04 -.350E-03   -.958E-07 -.487E-08 0.367E-07

 POSITION                                       TOTAL-FORCE (eV/Angst)
      5.46781      5.46999      0.00104         0.012820     -0.042237     -0.015714
      1.36749      1.36854      1.36336        -0.002389     -0.015590      0.027419
      2.73604      2.73086      5.46838        -0.003679      0.029354     -0.022814
      4.09836      4.10088      1.36712         0.000292      0.013831      0.002310
      2.73338      5.46962      2.73423        -0.018656      0.019816      0.004388
      4.10212      1.36673      4.10242         0.033190     -0.011768     -0.029273
      5.46923      2.73492      2.73149        -0.009564     -0.010326     -0.003112
      1.36742      4.09899      4.10007        -0.012014      0.016920      0.036796
    total drift:                                0.000006      0.000007      0.000009

  FREE ENERGIE OF THE ION-ELECTRON SYSTEM (eV)
  free  energy   TOTEN  =       -33.22508891 eV

  energy  without entropy=      -33.22508891  energy(sigma->0) =      -33.22508891

 stress matrix after NEB project (eV)
      8.28088      0.02205      0.00207
      0.02205      8.27980      0.01113
      0.00207      0.01113      8.28045
  FORCES: max atom, RMS     0.046854    0.034709
  FORCE total and by dimension    0.098171    0.042237
  Stress total and by dimension   14.342078    8.280881
 Linear response reoptimize wavefunctions
 Linear response G [H, r] |phi>, progress :
  Direction:   1

[...]

  free energy    TOTEN  =      -441.63817465 eV

[...]

 Linear response G [H, r] |phi>, progress :
  Direction:   2

[...]

 Linear response G [H, r] |phi>, progress :
  Direction:   3

[...]

  free energy    TOTEN  =        49.98226438 eV

[...]

 Linear response to external field (no local field effect), progress :
  Direction:   1
  LATTYP: Found a simple cubic cell.
 ALAT       =     5.4700000000

[...]

 Free energy of the ion-electron system (eV)
  -1/2 Hartree   DENC   =         0.00000000
  -V(xc)+E(xc)   XCENC  =         0.00000000
  PAW double counting   =         0.00000000        0.00000000
  entropy T*S    EENTRO =         0.00000000
  eigenvalues    EBANDS =       -24.45327121
  free energy    TOTEN  =       -24.45327121 eV

  energy without entropy =      -24.45327121

[...]

 change of polarisation eV/A/(eV/A) component  1 :    52.778    -0.062    -0.004
 dielectric tensor                  component  1 :    59.352    -0.069    -0.004

[...]

 Linear response to external field (no local field effect), progress :
  Direction:   3
  LATTYP: Found a simple cubic cell.
 ALAT       =     5.4700000000

[...]

 HEAD OF MICROSCOPIC STATIC DIELECTRIC TENSOR (independent particle, excluding Hartree and local field effects)
          59.352239    -0.068795    -0.003951
          -0.068795    59.368164    -0.038436
          -0.003951    -0.038435    59.370197

 Linear response to external field, progress :
  Direction:   1
  LATTYP: Found a simple cubic cell.
 ALAT       =     5.4700000000

[...]

 PIEZOELECTRIC TENSOR FIELD DIRECTION 1  (e Angst)
    -0.00539  0.00460  0.00429           ( -0.00009  0.00004  0.00009)
     0.00460 -0.00499 -0.00209           (  0.00004  0.00002 -0.00001)
     0.00429 -0.00209  0.00798           (  0.00009 -0.00001  0.00008)

 PIEZOELECTRIC TENSOR FIELD DIRECTION 1  (C/m^2)
    -0.00053  0.00045  0.00042
     0.00045 -0.00049 -0.00020
     0.00042 -0.00020  0.00078

      POSITION         DIRECTION 1           BORN EFFECTIVE CHARGE    (rigid.aug.   ionic)
      5.46781      5.46999      0.00104    -5.82361 -0.01176  0.10502 (  0.21591  4.00000)
      1.36749      1.36854      1.36336    -5.76204  0.16791  0.03011 (  0.21594  4.00000)
      2.73604      2.73086      5.46838    -5.71156  0.01601 -0.12188 (  0.21595  4.00000)
      4.09836      4.10088      1.36712    -5.75862 -0.16505  0.03170 (  0.21593  4.00000)
      2.73338      5.46962      2.73423    -5.77286 -0.01175 -0.10023 (  0.21592  4.00000)
      4.10212      1.36673      4.10242    -5.75912 -0.06887 -0.03450 (  0.21593  4.00000)
      5.46923      2.73492      2.73149    -5.79505  0.01267  0.12264 (  0.21593  4.00000)
      1.36742      4.09899      4.10007    -5.82521  0.07534 -0.03214 (  0.21591  4.00000)
    total drift (improves with k-points): -46.20807  0.01450  0.00070

[...]

 Linear response to external field, progress :
  Direction:   3
  LATTYP: Found a simple cubic cell.
 ALAT       =     5.4700000000

[...]

----------------------------------------- Iteration    3(  12)  ---------------------------------------

 Broyden mixing:
  rms(total) = 0.97288E-06    rms(broyden)= 0.97249E-06
  rms(prec ) = 0.14753E-05
  weight for this iteration     100.00

 eigenvalues of (default mixing * dielectric matrix)
  average eigenvalue GAMMA=   1.8356
  3.2053  2.8125  2.5331  2.4490  1.6699  1.2835  1.2835  1.0041  1.0041  1.1111

 Free energy of the ion-electron system (eV)
  -1/2 Hartree   DENC   =        -4.62928011
  -V(xc)+E(xc)   XCENC  =         0.95812935
  PAW double counting   =         3.07173748       -3.12068634
  entropy T*S    EENTRO =         0.00000000
  eigenvalues    EBANDS =       -24.56294617
  free energy    TOTEN  =       -28.28304580 eV

  energy without entropy =      -28.28304580

------------------------ aborting loop because EDIFF is reached ----------------------------------------

 change of polarisation eV/A/(eV/A) component  3 :    -0.004    -0.034    50.527
 dielectric tensor                  component  3 :    -0.004    -0.038    56.863

 PIEZOELECTRIC TENSOR FIELD DIRECTION 3  (e Angst)
    -0.00710  0.00062  0.00437           (  0.00002  0.00001  0.00008)
     0.00063  0.00367  0.00074           (  0.00001 -0.00001  0.00009)
     0.00437  0.00074  0.00147           (  0.00008  0.00009 -0.00003)

 PIEZOELECTRIC TENSOR FIELD DIRECTION 3  (C/m^2)
    -0.00069  0.00006  0.00043
     0.00006  0.00036  0.00007
     0.00043  0.00007  0.00014

      POSITION         DIRECTION 3           BORN EFFECTIVE CHARGE    (rigid.aug.   ionic)
      5.46781      5.46999      0.00104    -0.17293  0.01531 -5.80064 (  0.21591  4.00000)
      1.36749      1.36854      1.36336    -0.03912 -0.01642 -5.74614 (  0.21594  4.00000)
      2.73604      2.73086      5.46838     0.14573 -0.04796 -5.72032 (  0.21595  4.00000)
      4.09836      4.10088      1.36712    -0.03665  0.05366 -5.75484 (  0.21593  4.00000)
      2.73338      5.46962      2.73423     0.17417  0.05357 -5.79649 (  0.21592  4.00000)
      4.10212      1.36673      4.10242     0.03723 -0.05034 -5.77687 (  0.21593  4.00000)
      5.46923      2.73492      2.73149    -0.14728 -0.01587 -5.78708 (  0.21593  4.00000)
      1.36742      4.09899      4.10007     0.03921  0.01622 -5.82949 (  0.21591  4.00000)
    total drift (improves with k-points):   0.00036  0.00818-46.21188

[...]

 MACROSCOPIC STATIC DIELECTRIC TENSOR (including local field effects in DFT)
          56.853048    -0.068610    -0.004497
          -0.068610    56.861676    -0.037636
          -0.004499    -0.037634    56.863239

  LATTYP: Found a simple cubic cell.
 ALAT       =     5.4700000000

  Lattice vectors:

 A1 = (   5.4700000000,   0.0000000000,   0.0000000000)
 A2 = (   0.0000000000,   5.4700000000,   0.0000000000)
 A3 = (   0.0000000000,   0.0000000000,   5.4700000000)

Analysis of symmetry for initial positions (statically):
 Subroutine PRICEL returns:
 Original cell was already a primitive cell.

[...]

The static configuration has the point symmetry C_1 .

Analysis of symmetry for dynamics (positions and initial velocities):
 Subroutine PRICEL returns:
 Original cell was already a primitive cell.

 Routine SETGRP: Setting up the symmetry group for a
 simple cubic supercell.

 Subroutine GETGRP returns: Found  1 space group operations
 (whereof  1 operations were pure point group operations)
 out of a pool of 48 trial point group operations.

The dynamic configuration has the point symmetry C_1 .

 KPOINTS: Automatic mesh

Automatic generation of k-mesh.
Space group operators:
 irot       det(A)        alpha          n_x          n_y          n_z        tau_x        tau_y        tau_z
    1     1.000000     0.000001     1.000000     0.000000     0.000000     0.000000     0.000000     0.000000

 Subroutine IBZKPT returns following result:

 Found      1 irreducible k-points:

 Following reciprocal coordinates:
            Coordinates               Weight
  0.000000  0.000000  0.000000      1.000000

 Following cartesian coordinates:
            Coordinates               Weight
  0.000000  0.000000  0.000000      1.000000

 MACROSCOPIC STATIC DIELECTRIC TENSOR (including local field effects in DFT)
          56.853048    -0.068610    -0.004497
          -0.068610    56.861676    -0.037636
          -0.004499    -0.037634    56.863239

 PIEZOELECTRIC TENSOR  for field in x, y, z        (e  Angst)
          XX          YY          ZZ          XY          YZ          ZX
  x    -0.00539    -0.00499     0.00798     0.00460    -0.00209     0.00429
  y     0.00887    -0.00121     0.00001    -0.00180     0.00489     0.00075
  z    -0.00710     0.00367     0.00147     0.00063     0.00074     0.00437

 PIEZOELECTRIC TENSOR  for field in x, y, z        (C/m^2)
          XX          YY          ZZ          XY          YZ          ZX
  x    -0.00053    -0.00049     0.00078     0.00045    -0.00020     0.00042
  y     0.00087    -0.00012     0.00000    -0.00018     0.00048     0.00007
  z    -0.00069     0.00036     0.00014     0.00006     0.00007     0.00043

 BORN EFFECTIVE CHARGES (in e, cummulative output)
 ion    1
    1    -5.82361    -0.01176     0.10502
    2     0.03882    -5.82737    -0.00077
    3    -0.17293     0.01531    -5.80064
 ion    2
    1    -5.76204     0.16791     0.03011
    2    -0.17488    -5.74334     0.00808
    3    -0.03912    -0.01642    -5.74614
 ion    3
    1    -5.71156     0.01601    -0.12188
    2    -0.03203    -5.71178     0.08682
    3     0.14573    -0.04796    -5.72032
 ion    4
    1    -5.75862    -0.16505     0.03170
    2     0.17639    -5.77861     0.01349
    3    -0.03665     0.05366    -5.75484
 ion    5
    1    -5.77286    -0.01175    -0.10023
    2     0.03911    -5.80490    -0.08257
    3     0.17417     0.05357    -5.79649
 ion    6
    1    -5.75912    -0.06887    -0.03450
    2     0.13914    -5.75127    -0.00868
    3     0.03723    -0.05034    -5.77687
 ion    7
    1    -5.79505     0.01267     0.12264
    2    -0.03726    -5.76160    -0.00134
    3    -0.14728    -0.01587    -5.78708
 ion    8
    1    -5.82521     0.07534    -0.03214
    2    -0.13469    -5.83071    -0.00690
    3     0.03921     0.01622    -5.82949